sat_in/bonus/20.wcnf
p wcnf 35 340 16
1 1 6 11 16 21 26 31 0
2 2 7 12 17 22 27 32 0
3 3 8 13 18 23 28 33 0
4 4 9 14 19 24 29 34 0
5 5 10 15 20 25 30 35 0
16 -1 -17 0
16 -1 -18 0
16 -1 -19 0
16 -1 -20 0
16 -2 -16 0
16 -2 -18 0
16 -2 -19 0
16 -2 -20 0
16 -3 -16 0
16 -3 -17 0
16 -3 -19 0
16 -3 -20 0
16 -4 -16 0
16 -4 -17 0
16 -4 -18 0
16 -4 -20 0
16 -5 -16 0
16 -5 -17 0
16 -5 -18 0
16 -5 -19 0
16 -1 -32 0
16 -1 -33 0
16 -1 -34 0
16 -1 -35 0
16 -2 -31 0
16 -2 -33 0
16 -2 -34 0
16 -2 -35 0
16 -3 -31 0
16 -3 -32 0
16 -3 -34 0
16 -3 -35 0
16 -4 -31 0
16 -4 -32 0
16 -4 -33 0
16 -4 -35 0
16 -5 -31 0
16 -5 -32 0
16 -5 -33 0
16 -5 -34 0
16 -6 -32 0
16 -6 -33 0
16 -6 -34 0
16 -6 -35 0
16 -7 -31 0
16 -7 -33 0
16 -7 -34 0
16 -7 -35 0
16 -8 -31 0
16 -8 -32 0
16 -8 -34 0
16 -8 -35 0
16 -9 -31 0
16 -9 -32 0
16 -9 -33 0
16 -9 -35 0
16 -10 -31 0
16 -10 -32 0
16 -10 -33 0
16 -10 -34 0
16 -11 -17 0
16 -11 -18 0
16 -11 -19 0
16 -11 -20 0
16 -12 -16 0
16 -12 -18 0
16 -12 -19 0
16 -12 -20 0
16 -13 -16 0
16 -13 -17 0
16 -13 -19 0
16 -13 -20 0
16 -14 -16 0
16 -14 -17 0
16 -14 -18 0
16 -14 -20 0
16 -15 -16 0
16 -15 -17 0
16 -15 -18 0
16 -15 -19 0
16 -11 -27 0
16 -11 -28 0
16 -11 -29 0
16 -11 -30 0
16 -12 -26 0
16 -12 -28 0
16 -12 -29 0
16 -12 -30 0
16 -13 -26 0
16 -13 -27 0
16 -13 -29 0
16 -13 -30 0
16 -14 -26 0
16 -14 -27 0
16 -14 -28 0
16 -14 -30 0
16 -15 -26 0
16 -15 -27 0
16 -15 -28 0
16 -15 -29 0
16 -11 -32 0
16 -11 -33 0
16 -11 -34 0
16 -11 -35 0
16 -12 -31 0
16 -12 -33 0
16 -12 -34 0
16 -12 -35 0
16 -13 -31 0
16 -13 -32 0
16 -13 -34 0
16 -13 -35 0
16 -14 -31 0
16 -14 -32 0
16 -14 -33 0
16 -14 -35 0
16 -15 -31 0
16 -15 -32 0
16 -15 -33 0
16 -15 -34 0
16 -21 -32 0
16 -21 -33 0
16 -21 -34 0
16 -21 -35 0
16 -22 -31 0
16 -22 -33 0
16 -22 -34 0
16 -22 -35 0
16 -23 -31 0
16 -23 -32 0
16 -23 -34 0
16 -23 -35 0
16 -24 -31 0
16 -24 -32 0
16 -24 -33 0
16 -24 -35 0
16 -25 -31 0
16 -25 -32 0
16 -25 -33 0
16 -25 -34 0
16 -26 -32 0
16 -26 -33 0
16 -26 -34 0
16 -26 -35 0
16 -27 -31 0
16 -27 -33 0
16 -27 -34 0
16 -27 -35 0
16 -28 -31 0
16 -28 -32 0
16 -28 -34 0
16 -28 -35 0
16 -29 -31 0
16 -29 -32 0
16 -29 -33 0
16 -29 -35 0
16 -30 -31 0
16 -30 -32 0
16 -30 -33 0
16 -30 -34 0
16 -1 -6 0
16 -1 -11 0
16 -1 -16 0
16 -1 -21 0
16 -1 -26 0
16 -1 -31 0
16 -2 -7 0
16 -2 -12 0
16 -2 -17 0
16 -2 -22 0
16 -2 -27 0
16 -2 -32 0
16 -3 -8 0
16 -3 -13 0
16 -3 -18 0
16 -3 -23 0
16 -3 -28 0
16 -3 -33 0
16 -4 -9 0
16 -4 -14 0
16 -4 -19 0
16 -4 -24 0
16 -4 -29 0
16 -4 -34 0
16 -5 -10 0
16 -5 -15 0
16 -5 -20 0
16 -5 -25 0
16 -5 -30 0
16 -5 -35 0
16 -6 -11 0
16 -6 -16 0
16 -6 -21 0
16 -6 -26 0
16 -6 -31 0
16 -7 -12 0
16 -7 -17 0
16 -7 -22 0
16 -7 -27 0
16 -7 -32 0
16 -8 -13 0
16 -8 -18 0
16 -8 -23 0
16 -8 -28 0
16 -8 -33 0
16 -9 -14 0
16 -9 -19 0
16 -9 -24 0
16 -9 -29 0
16 -9 -34 0
16 -10 -15 0
16 -10 -20 0
16 -10 -25 0
16 -10 -30 0
16 -10 -35 0
16 -11 -16 0
16 -11 -21 0
16 -11 -26 0
16 -11 -31 0
16 -12 -17 0
16 -12 -22 0
16 -12 -27 0
16 -12 -32 0
16 -13 -18 0
16 -13 -23 0
16 -13 -28 0
16 -13 -33 0
16 -14 -19 0
16 -14 -24 0
16 -14 -29 0
16 -14 -34 0
16 -15 -20 0
16 -15 -25 0
16 -15 -30 0
16 -15 -35 0
16 -16 -21 0
16 -16 -26 0
16 -16 -31 0
16 -17 -22 0
16 -17 -27 0
16 -17 -32 0
16 -18 -23 0
16 -18 -28 0
16 -18 -33 0
16 -19 -24 0
16 -19 -29 0
16 -19 -34 0
16 -20 -25 0
16 -20 -30 0
16 -20 -35 0
16 -21 -26 0
16 -21 -31 0
16 -22 -27 0
16 -22 -32 0
16 -23 -28 0
16 -23 -33 0
16 -24 -29 0
16 -24 -34 0
16 -25 -30 0
16 -25 -35 0
16 -26 -31 0
16 -27 -32 0
16 -28 -33 0
16 -29 -34 0
16 -30 -35 0
16 -1 -2 0
16 -1 -3 0
16 -1 -4 0
16 -1 -5 0
16 -2 -3 0
16 -2 -4 0
16 -2 -5 0
16 -3 -4 0
16 -3 -5 0
16 -4 -5 0
16 -6 -7 0
16 -6 -8 0
16 -6 -9 0
16 -6 -10 0
16 -7 -8 0
16 -7 -9 0
16 -7 -10 0
16 -8 -9 0
16 -8 -10 0
16 -9 -10 0
16 -11 -12 0
16 -11 -13 0
16 -11 -14 0
16 -11 -15 0
16 -12 -13 0
16 -12 -14 0
16 -12 -15 0
16 -13 -14 0
16 -13 -15 0
16 -14 -15 0
16 -16 -17 0
16 -16 -18 0
16 -16 -19 0
16 -16 -20 0
16 -17 -18 0
16 -17 -19 0
16 -17 -20 0
16 -18 -19 0
16 -18 -20 0
16 -19 -20 0
16 -21 -22 0
16 -21 -23 0
16 -21 -24 0
16 -21 -25 0
16 -22 -23 0
16 -22 -24 0
16 -22 -25 0
16 -23 -24 0
16 -23 -25 0
16 -24 -25 0
16 -26 -27 0
16 -26 -28 0
16 -26 -29 0
16 -26 -30 0
16 -27 -28 0
16 -27 -29 0
16 -27 -30 0
16 -28 -29 0
16 -28 -30 0
16 -29 -30 0
16 -31 -32 0
16 -31 -33 0
16 -31 -34 0
16 -31 -35 0
16 -32 -33 0
16 -32 -34 0
16 -32 -35 0
16 -33 -34 0
16 -33 -35 0
16 -34 -35 0
