sat_in/task3/20.cnf
p cnf 28 226
1 5 9 13 17 21 25 0
2 6 10 14 18 22 26 0
3 7 11 15 19 23 27 0
4 8 12 16 20 24 28 0
-1 -14 0
-1 -15 0
-1 -16 0
-2 -13 0
-2 -15 0
-2 -16 0
-3 -13 0
-3 -14 0
-3 -16 0
-4 -13 0
-4 -14 0
-4 -15 0
-1 -26 0
-1 -27 0
-1 -28 0
-2 -25 0
-2 -27 0
-2 -28 0
-3 -25 0
-3 -26 0
-3 -28 0
-4 -25 0
-4 -26 0
-4 -27 0
-5 -26 0
-5 -27 0
-5 -28 0
-6 -25 0
-6 -27 0
-6 -28 0
-7 -25 0
-7 -26 0
-7 -28 0
-8 -25 0
-8 -26 0
-8 -27 0
-9 -14 0
-9 -15 0
-9 -16 0
-10 -13 0
-10 -15 0
-10 -16 0
-11 -13 0
-11 -14 0
-11 -16 0
-12 -13 0
-12 -14 0
-12 -15 0
-9 -22 0
-9 -23 0
-9 -24 0
-10 -21 0
-10 -23 0
-10 -24 0
-11 -21 0
-11 -22 0
-11 -24 0
-12 -21 0
-12 -22 0
-12 -23 0
-9 -26 0
-9 -27 0
-9 -28 0
-10 -25 0
-10 -27 0
-10 -28 0
-11 -25 0
-11 -26 0
-11 -28 0
-12 -25 0
-12 -26 0
-12 -27 0
-17 -26 0
-17 -27 0
-17 -28 0
-18 -25 0
-18 -27 0
-18 -28 0
-19 -25 0
-19 -26 0
-19 -28 0
-20 -25 0
-20 -26 0
-20 -27 0
-21 -26 0
-21 -27 0
-21 -28 0
-22 -25 0
-22 -27 0
-22 -28 0
-23 -25 0
-23 -26 0
-23 -28 0
-24 -25 0
-24 -26 0
-24 -27 0
-29 -6 0
-29 -7 0
-29 -8 0
-30 -5 0
-30 -7 0
-30 -8 0
-31 -5 0
-31 -6 0
-31 -8 0
-32 -5 0
-32 -6 0
-32 -7 0
-29 -10 0
-29 -11 0
-29 -12 0
-30 -9 0
-30 -11 0
-30 -12 0
-31 -9 0
-31 -10 0
-31 -12 0
-32 -9 0
-32 -10 0
-32 -11 0
-29 -14 0
-29 -15 0
-29 -16 0
-30 -13 0
-30 -15 0
-30 -16 0
-31 -13 0
-31 -14 0
-31 -16 0
-32 -13 0
-32 -14 0
-32 -15 0
-29 -18 0
-29 -19 0
-29 -20 0
-30 -17 0
-30 -19 0
-30 -20 0
-31 -17 0
-31 -18 0
-31 -20 0
-32 -17 0
-32 -18 0
-32 -19 0
-29 -22 0
-29 -23 0
-29 -24 0
-30 -21 0
-30 -23 0
-30 -24 0
-31 -21 0
-31 -22 0
-31 -24 0
-32 -21 0
-32 -22 0
-32 -23 0
-29 -26 0
-29 -27 0
-29 -28 0
-30 -25 0
-30 -27 0
-30 -28 0
-31 -25 0
-31 -26 0
-31 -28 0
-32 -25 0
-32 -26 0
-32 -27 0
-33 -10 0
-33 -11 0
-33 -12 0
-34 -9 0
-34 -11 0
-34 -12 0
-35 -9 0
-35 -10 0
-35 -12 0
-36 -9 0
-36 -10 0
-36 -11 0
-33 -14 0
-33 -15 0
-33 -16 0
-34 -13 0
-34 -15 0
-34 -16 0
-35 -13 0
-35 -14 0
-35 -16 0
-36 -13 0
-36 -14 0
-36 -15 0
-33 -18 0
-33 -19 0
-33 -20 0
-34 -17 0
-34 -19 0
-34 -20 0
-35 -17 0
-35 -18 0
-35 -20 0
-36 -17 0
-36 -18 0
-36 -19 0
-33 -22 0
-33 -23 0
-33 -24 0
-34 -21 0
-34 -23 0
-34 -24 0
-35 -21 0
-35 -22 0
-35 -24 0
-36 -21 0
-36 -22 0
-36 -23 0
-33 -26 0
-33 -27 0
-33 -28 0
-34 -25 0
-34 -27 0
-34 -28 0
-35 -25 0
-35 -26 0
-35 -28 0
-36 -25 0
-36 -26 0
-36 -27 0
-37 -14 0
-37 -15 0
-37 -16 0
-38 -13 0
-38 -15 0
-38 -16 0
-39 -13 0
-39 -14 0
-39 -16 0
-40 -13 0
-40 -14 0
-40 -15 0
-37 -18 0
-37 -19 0
-37 -20 0
-38 -17 0
-38 -19 0
-38 -20 0
-39 -17 0
-39 -18 0
-39 -20 0
-40 -17 0
-40 -18 0
-40 -19 0
-37 -22 0
-37 -23 0
-37 -24 0
-38 -21 0
-38 -23 0
-38 -24 0
-39 -21 0
-39 -22 0
-39 -24 0
-40 -21 0
-40 -22 0
-40 -23 0
-37 -26 0
-37 -27 0
-37 -28 0
-38 -25 0
-38 -27 0
-38 -28 0
-39 -25 0
-39 -26 0
-39 -28 0
-40 -25 0
-40 -26 0
-40 -27 0
-41 -18 0
-41 -19 0
-41 -20 0
-42 -17 0
-42 -19 0
-42 -20 0
-43 -17 0
-43 -18 0
-43 -20 0
-44 -17 0
-44 -18 0
-44 -19 0
-41 -22 0
-41 -23 0
-41 -24 0
-42 -21 0
-42 -23 0
-42 -24 0
-43 -21 0
-43 -22 0
-43 -24 0
-44 -21 0
-44 -22 0
-44 -23 0
-41 -26 0
-41 -27 0
-41 -28 0
-42 -25 0
-42 -27 0
-42 -28 0
-43 -25 0
-43 -26 0
-43 -28 0
-44 -25 0
-44 -26 0
-44 -27 0
-45 -22 0
-45 -23 0
-45 -24 0
-46 -21 0
-46 -23 0
-46 -24 0
-47 -21 0
-47 -22 0
-47 -24 0
-48 -21 0
-48 -22 0
-48 -23 0
-45 -26 0
-45 -27 0
-45 -28 0
-46 -25 0
-46 -27 0
-46 -28 0
-47 -25 0
-47 -26 0
-47 -28 0
-48 -25 0
-48 -26 0
-48 -27 0
-49 -26 0
-49 -27 0
-49 -28 0
-50 -25 0
-50 -27 0
-50 -28 0
-51 -25 0
-51 -26 0
-51 -28 0
-52 -25 0
-52 -26 0
-52 -27 0
-1 -5 0
-1 -9 0
-1 -13 0
-1 -17 0
-1 -21 0
-1 -25 0
-2 -6 0
-2 -10 0
-2 -14 0
-2 -18 0
-2 -22 0
-2 -26 0
-3 -7 0
-3 -11 0
-3 -15 0
-3 -19 0
-3 -23 0
-3 -27 0
-4 -8 0
-4 -12 0
-4 -16 0
-4 -20 0
-4 -24 0
-4 -28 0
-5 -9 0
-5 -13 0
-5 -17 0
-5 -21 0
-5 -25 0
-6 -10 0
-6 -14 0
-6 -18 0
-6 -22 0
-6 -26 0
-7 -11 0
-7 -15 0
-7 -19 0
-7 -23 0
-7 -27 0
-8 -12 0
-8 -16 0
-8 -20 0
-8 -24 0
-8 -28 0
-9 -13 0
-9 -17 0
-9 -21 0
-9 -25 0
-10 -14 0
-10 -18 0
-10 -22 0
-10 -26 0
-11 -15 0
-11 -19 0
-11 -23 0
-11 -27 0
-12 -16 0
-12 -20 0
-12 -24 0
-12 -28 0
-13 -17 0
-13 -21 0
-13 -25 0
-14 -18 0
-14 -22 0
-14 -26 0
-15 -19 0
-15 -23 0
-15 -27 0
-16 -20 0
-16 -24 0
-16 -28 0
-17 -21 0
-17 -25 0
-18 -22 0
-18 -26 0
-19 -23 0
-19 -27 0
-20 -24 0
-20 -28 0
-21 -25 0
-22 -26 0
-23 -27 0
-24 -28 0
-1 -2 0
-1 -3 0
-1 -4 0
-2 -3 0
-2 -4 0
-3 -4 0
-5 -6 0
-5 -7 0
-5 -8 0
-6 -7 0
-6 -8 0
-7 -8 0
-9 -10 0
-9 -11 0
-9 -12 0
-10 -11 0
-10 -12 0
-11 -12 0
-13 -14 0
-13 -15 0
-13 -16 0
-14 -15 0
-14 -16 0
-15 -16 0
-17 -18 0
-17 -19 0
-17 -20 0
-18 -19 0
-18 -20 0
-19 -20 0
-21 -22 0
-21 -23 0
-21 -24 0
-22 -23 0
-22 -24 0
-23 -24 0
-25 -26 0
-25 -27 0
-25 -28 0
-26 -27 0
-26 -28 0
-27 -28 0
